Gurobi 12.0.3:   lim:time = 14400

  mip:bestbound = 1

Set parameter LogToConsole to value 1

  tech:outlev = 1

Set parameter Cuts to value 3

  cut:cuts = 3

Set parameter Presolve to value 2

  pre:solve = 2

Set parameter MIPFocus to value 2

  mip:focus = 2

Set parameter Symmetry to value 2

  mip:symmetry = 2

Set parameter InfUnbdInfo to value 1

Gurobi Optimizer version 12.0.3 build v12.0.3rc0 (win64 - Windows 11.0 (26100.2))



CPU model: 12th Gen Intel(R) Core(TM) i7-12700, instruction set [SSE2|AVX|AVX2]

Thread count: 12 physical cores, 20 logical processors, using up to 20 threads



Non-default parameters:

TimeLimit  14400

MIPFocus  2

Symmetry  2

Cuts  3

InfUnbdInfo  1

Presolve  2



Optimize a model with 551 rows, 958 columns and 5741 nonzeros

Model fingerprint: 0x568e0b19

Model has 1 quadratic objective term

Model has 6 quadratic constraints

Variable types: 36 continuous, 922 integer (0 binary)

Coefficient statistics:

  Matrix range     [1e+00, 1e+05]

  QMatrix range    [1e+00, 1e+00]

  QLMatrix range   [1e+00, 2e+01]

  Objective range  [7e+00, 1e+02]

  QObjective range [3e+00, 3e+00]

  Bounds range     [1e+00, 1e+02]

  RHS range        [1e+00, 1e+05]

  QRHS range       [1e+02, 1e+02]

Presolve removed 44 rows and 98 columns

Presolve time: 0.38s

Presolved: 1035 rows, 1330 columns, 8407 nonzeros

Variable types: 18 continuous, 1312 integer (1153 binary)

Root relaxation presolve removed 68 rows and 0 columns

Root relaxation presolved: 696 rows, 1113 columns, 8625 nonzeros





Root relaxation: objective 2.520087e+02, 165 iterations, 0.02 seconds (0.01 work units)



    Nodes    |    Current Node    |     Objective Bounds      |     Work

 Expl Unexpl |  Obj  Depth IntInf | Incumbent    BestBd   Gap | It/Node Time



     0     0  252.00873    0   36          -  252.00873      -     -    0s

H    0     0                     542.0700000  252.00873  53.5%     -    0s

H    0     0                     514.6200000  252.00873  51.0%     -    0s

H    0     0                     511.9800000  252.00873  50.8%     -    0s

H    0     0                     478.6900000  274.15000  42.7%     -    0s

     0     0  289.96999    0   48  478.69000  289.96999  39.4%     -    0s

     0     0  289.96999    0   35  478.69000  289.96999  39.4%     -    0s

     0     0  289.96999    0   44  478.69000  289.96999  39.4%     -    0s

     0     0  289.96999    0   52  478.69000  289.96999  39.4%     -    0s

H    0     0                     438.7300000  289.96999  33.9%     -    0s

H    0     0                     430.3100000  289.97000  32.6%     -    1s

H    0     0                     413.2800000  289.97000  29.8%     -    1s

     0     0  289.97010    0   20  413.28000  289.97010  29.8%     -    1s

     0     0  289.97413    0   20  413.28000  289.97413  29.8%     -    1s

     0     0  290.09114    0   61  413.28000  290.09114  29.8%     -    1s

     0     0  290.09464    0   63  413.28000  290.09464  29.8%     -    1s

     0     0  291.05223    0   66  413.28000  291.05223  29.6%     -    1s

     0     0  291.05570    0   66  413.28000  291.05570  29.6%     -    1s

H    0     2                     391.0700000  291.06082  25.6%     -    1s

     0     2  291.06082    0   66  391.07000  291.06082  25.6%     -    1s

* 1379   782              28     390.6000000  304.01732  22.2%  19.4    2s

H 2028   984                     390.1500000  306.81667  21.4%  19.0    2s

  4361  1533  346.44467   16  119  390.15000  311.06000  20.3%  16.7    5s

* 5411  1698              31     389.4200000  311.06000  20.1%  18.5    5s

H 5975  1611                     386.3100000  311.06000  19.5%  18.1    5s

* 8711  1532              37     383.7500000  311.06000  18.9%  17.7    6s

H 9773  1793                     383.6700000  312.07427  18.7%  17.8    6s

 26089  4758  338.35156   25   29  383.67000  329.74029  14.1%  17.4   10s

 44758  6591  370.71632   24   64  383.67000  342.86143  10.6%  16.8   15s

 63655  5602 infeasible   44       383.67000  352.22189  8.20%  16.9   20s



Cutting planes:

  Learned: 4

  Gomory: 15

  Lift-and-project: 7

  Cover: 47

  Implied bound: 28

  Clique: 39

  MIR: 25

  Mixing: 2

  StrongCG: 10

  Flow cover: 214

  GUB cover: 4

  Inf proof: 50

  Zero half: 213

  RLT: 100

  Relax-and-lift: 31



Explored 82735 nodes (1407194 simplex iterations) in 25.10 seconds (16.40 work units)

Thread count was 20 (of 20 available processors)



Solution count 10: 383.67 383.67 383.75 ... 430.31



Optimal solution found (tolerance 1.00e-04)

Best objective 3.836700000000e+02, best bound 3.836700000000e+02, gap 0.0000%



AMPL MP initial flat model has 958 variables (0 integer, 922 binary);

Objectives: 1 quadratic; 

Constraints:  551 linear; 6 quadratic;



AMPL MP final model has 958 variables (0 integer, 922 binary);

Objectives: 1 quadratic; 

Constraints:  551 linear; 6 quadratic;





-----RESULTS INFO-----
running_time:  25.187
TC.best_bound:  383.67
TC:  383.66999999999996
MIP Gap (%):  1.4815705908934244e-14
=== Vehicle Routes ===
Vehicle 1: 0 → 21
Vehicle 1: 1 → 16
Vehicle 1: 3 → 14
Vehicle 1: 14 → 1
Vehicle 1: 16 → 23
Vehicle 1: 19 → 3
Vehicle 1: 21 → 19
Vehicle 2: 0 → 2
Vehicle 2: 2 → 15
Vehicle 2: 4 → 9
Vehicle 2: 9 → 23
Vehicle 2: 15 → 4
Vehicle 3: 0 → 23
Vehicle 4: 0 → 23

=== Full Vehicle Routes ===
Vehicle 1: 0 → 21 → 19 → 3 → 14 → 1 → 16 → 0 (99<100)
Vehicle 2: 0 → 2 → 15 → 4 → 9 → 0 (81<100)
Vehicle 3: 0 → 0 (0<100)
Vehicle 4: 0 → 0 (0<100)
Arc used by MRT line: y variables:
Customer assigment to PL: u variables:
5 15
6 19
7 14
8 16
10 21
11 14
12 15
Node is served by regular vehicle: g variables:
1
2
3
4
9
19
21
14
15
16
Customer assigment to Home delivery: gm variables:
1
2
3
4
9
Node total demands: ntd variables:
1 6 1
2 21 1
3 21 1
4 18 1
9 14 1
10 0 0
11 0 0
12 0 0
19 12 1
20 0 0
21 2 1
22 0 0
13 0 0
14 34 1
15 28 1
16 24 1
17 0 0
18 0 0
Customer's demand delivered to PL: l variables:
5
6
7
8
10
11
12
Lockers load <= capacity:
12 <= 86
0 <= 91
2 <= 79
0 <= 80
0 <= 70
34 <= 88
28 <= 88
24 <= 85
0 <= 79
0 <= 87
